p cnf 600 2038
c p weight 240 -1 0
c p weight -240 1 0
c p weight 242 6.12323399573676603586882014729198302312846062338790031898128063403419218957424163818359375E-17 0
c p weight -242 1 0
c p weight 243 1 0
c p weight -243 1 0
c p weight 244 -1 0
c p weight -244 1 0
c p weight 246 -1 0
c p weight -246 1 0
c p weight 249 -1 0
c p weight -249 1 0
c p weight 252 -1 0
c p weight -252 1 0
c p weight 255 -1 0
c p weight -255 1 0
c p weight 258 -1 0
c p weight -258 1 0
c p weight 261 -1 0
c p weight -261 1 0
c p weight 264 -1 0
c p weight -264 1 0
c p weight 267 -1 0
c p weight -267 1 0
c p weight 270 -1 0
c p weight -270 1 0
c p weight 273 -1 0
c p weight -273 1 0
c p weight 276 -1 0
c p weight -276 1 0
c p weight 279 -1 0
c p weight -279 1 0
c p weight 282 -1 0
c p weight -282 1 0
c p weight 285 -1 0
c p weight -285 1 0
c p weight 288 -1 0
c p weight -288 1 0
c p weight 291 -1 0
c p weight -291 1 0
c p weight 294 -1 0
c p weight -294 1 0
c p weight 297 -1 0
c p weight -297 1 0
c p weight 300 -1 0
c p weight -300 1 0
c p weight 303 -1 0
c p weight -303 1 0
c p weight 306 -1 0
c p weight -306 1 0
c p weight 309 -1 0
c p weight -309 1 0
c p weight 312 -1 0
c p weight -312 1 0
c p weight 315 -1 0
c p weight -315 1 0
c p weight 318 -1 0
c p weight -318 1 0
c p weight 321 -1 0
c p weight -321 1 0
c p weight 324 -1 0
c p weight -324 1 0
c p weight 327 -1 0
c p weight -327 1 0
c p weight 330 -1 0
c p weight -330 1 0
c p weight 333 -1 0
c p weight -333 1 0
c p weight 336 -1 0
c p weight -336 1 0
c p weight 339 -1 0
c p weight -339 1 0
c p weight 342 -1 0
c p weight -342 1 0
c p weight 345 -1 0
c p weight -345 1 0
c p weight 348 -1 0
c p weight -348 1 0
c p weight 351 -1 0
c p weight -351 1 0
c p weight 354 -1 0
c p weight -354 1 0
c p weight 357 -1 0
c p weight -357 1 0
c p weight 360 -1 0
c p weight -360 1 0
c p weight 363 -1 0
c p weight -363 1 0
c p weight 366 -1 0
c p weight -366 1 0
c p weight 369 -1 0
c p weight -369 1 0
c p weight 372 -1 0
c p weight -372 1 0
c p weight 375 -1 0
c p weight -375 1 0
c p weight 378 -1 0
c p weight -378 1 0
c p weight 381 -1 0
c p weight -381 1 0
c p weight 384 -1 0
c p weight -384 1 0
c p weight 387 -1 0
c p weight -387 1 0
c p weight 390 -1 0
c p weight -390 1 0
c p weight 393 -1 0
c p weight -393 1 0
c p weight 396 -1 0
c p weight -396 1 0
c p weight 399 -1 0
c p weight -399 1 0
c p weight 402 -1 0
c p weight -402 1 0
c p weight 405 -1 0
c p weight -405 1 0
c p weight 408 -1 0
c p weight -408 1 0
c p weight 411 -1 0
c p weight -411 1 0
c p weight 414 -1 0
c p weight -414 1 0
c p weight 417 -1 0
c p weight -417 1 0
c p weight 420 -1 0
c p weight -420 1 0
c p weight 423 -1 0
c p weight -423 1 0
c p weight 426 -1 0
c p weight -426 1 0
c p weight 429 -1 0
c p weight -429 1 0
c p weight 432 -1 0
c p weight -432 1 0
c p weight 435 -1 0
c p weight -435 1 0
c p weight 438 -1 0
c p weight -438 1 0
c p weight 441 -1 0
c p weight -441 1 0
c p weight 444 -1 0
c p weight -444 1 0
c p weight 447 -1 0
c p weight -447 1 0
c p weight 450 -1 0
c p weight -450 1 0
c p weight 453 -1 0
c p weight -453 1 0
c p weight 456 -1 0
c p weight -456 1 0
c p weight 459 -1 0
c p weight -459 1 0
c p weight 462 -1 0
c p weight -462 1 0
c p weight 465 -1 0
c p weight -465 1 0
c p weight 468 -1 0
c p weight -468 1 0
c p weight 471 -1 0
c p weight -471 1 0
c p weight 474 -1 0
c p weight -474 1 0
c p weight 477 -1 0
c p weight -477 1 0
c p weight 480 -1 0
c p weight -480 1 0
c p weight 483 -1 0
c p weight -483 1 0
c p weight 486 -1 0
c p weight -486 1 0
c p weight 489 -1 0
c p weight -489 1 0
c p weight 492 -1 0
c p weight -492 1 0
c p weight 495 -1 0
c p weight -495 1 0
c p weight 498 -1 0
c p weight -498 1 0
c p weight 501 -1 0
c p weight -501 1 0
c p weight 504 -1 0
c p weight -504 1 0
c p weight 507 -1 0
c p weight -507 1 0
c p weight 510 -1 0
c p weight -510 1 0
c p weight 513 -1 0
c p weight -513 1 0
c p weight 516 -1 0
c p weight -516 1 0
c p weight 519 -1 0
c p weight -519 1 0
c p weight 522 -1 0
c p weight -522 1 0
c p weight 525 -1 0
c p weight -525 1 0
c p weight 528 -1 0
c p weight -528 1 0
c p weight 531 -1 0
c p weight -531 1 0
c p weight 534 -1 0
c p weight -534 1 0
c p weight 537 -1 0
c p weight -537 1 0
c p weight 540 -1 0
c p weight -540 1 0
c p weight 543 -1 0
c p weight -543 1 0
c p weight 546 -1 0
c p weight -546 1 0
c p weight 549 -1 0
c p weight -549 1 0
c p weight 552 -1 0
c p weight -552 1 0
c p weight 555 -1 0
c p weight -555 1 0
c p weight 558 -1 0
c p weight -558 1 0
c p weight 561 -1 0
c p weight -561 1 0
c p weight 564 -1 0
c p weight -564 1 0
c p weight 567 -1 0
c p weight -567 1 0
c p weight 570 -1 0
c p weight -570 1 0
c p weight 573 -1 0
c p weight -573 1 0
c p weight 576 -1 0
c p weight -576 1 0
c p weight 579 -1 0
c p weight -579 1 0
c p weight 582 -1 0
c p weight -582 1 0
c p weight 585 -1 0
c p weight -585 1 0
c p weight 588 -1 0
c p weight -588 1 0
c p weight 591 -1 0
c p weight -591 1 0
c p weight 594 -1 0
c p weight -594 1 0
c p weight 597 -1 0
c p weight -597 1 0
c p weight 600 -1 0
c p weight -600 1 0
-237 0
-235 0
-233 0
-231 0
-229 0
-227 0
-225 0
-223 0
-221 0
-219 0
-217 0
-215 0
-213 0
-211 0
-209 0
-207 0
-205 0
-203 0
-201 0
-199 0
-197 0
-195 0
-193 0
-191 0
-189 0
-187 0
-185 0
-183 0
-181 0
-179 0
-177 0
-175 0
-173 0
-171 0
-169 0
-167 0
-165 0
-163 0
-161 0
-159 0
-157 0
-155 0
-153 0
-151 0
-149 0
-147 0
-145 0
-143 0
-141 0
-139 0
-137 0
-135 0
-133 0
-131 0
-129 0
-127 0
-125 0
-123 0
-121 0
-119 0
-117 0
-115 0
-113 0
-111 0
-109 0
-107 0
-105 0
-103 0
-101 0
-99 0
-97 0
-95 0
-93 0
-91 0
-89 0
-87 0
-85 0
-83 0
-81 0
-79 0
-77 0
-75 0
-73 0
-71 0
-69 0
-67 0
-65 0
-63 0
-61 0
-59 0
-57 0
-55 0
-53 0
-51 0
-49 0
-47 0
-45 0
-43 0
-41 0
-39 0
-37 0
-35 0
-33 0
-31 0
-29 0
-27 0
-25 0
-23 0
-21 0
-19 0
-17 0
-15 0
-13 0
-11 0
-9 0
-7 0
-5 0
-3 0
-1 0
239 237 -238 0
239 -237 238 0
-239 237 238 0
-239 -237 -238 0
-240 237 0
-240 238 0
240 -237 -238 0
241 -237 239 0
-241 237 239 0
-242 239 0
241 -242 -237 0
-241 -242 237 0
241 242 237 -239 0
-241 242 -237 -239 0
-243 239 0
241 -243 237 0
-241 -243 -237 0
241 243 -237 -239 0
-241 243 237 -239 0
-244 241 0
-244 239 0
-244 -237 0
244 -241 237 -239 0
245 241 -239 0
245 -241 239 0
-245 241 239 0
-245 -241 -239 0
-246 241 0
-246 239 0
246 -241 -239 0
247 241 -235 0
247 -241 235 0
-247 241 235 0
-247 -241 -235 0
248 245 -236 0
248 -245 236 0
-248 245 236 0
-248 -245 -236 0
-249 241 0
-249 236 0
-249 235 -245 0
-249 -235 245 0
249 -241 235 245 -236 0
249 -241 -235 -245 -236 0
250 247 -233 0
250 -247 233 0
-250 247 233 0
-250 -247 -233 0
251 236 -234 0
251 -236 234 0
-251 236 234 0
-251 -236 -234 0
-252 247 0
-252 234 0
-252 233 -236 0
-252 -233 236 0
252 -247 233 236 -234 0
252 -247 -233 -236 -234 0
253 250 -231 0
253 -250 231 0
-253 250 231 0
-253 -250 -231 0
254 234 -232 0
254 -234 232 0
-254 234 232 0
-254 -234 -232 0
-255 250 0
-255 232 0
-255 231 -234 0
-255 -231 234 0
255 -250 231 234 -232 0
255 -250 -231 -234 -232 0
256 253 -229 0
256 -253 229 0
-256 253 229 0
-256 -253 -229 0
257 232 -230 0
257 -232 230 0
-257 232 230 0
-257 -232 -230 0
-258 253 0
-258 230 0
-258 229 -232 0
-258 -229 232 0
258 -253 229 232 -230 0
258 -253 -229 -232 -230 0
259 256 -227 0
259 -256 227 0
-259 256 227 0
-259 -256 -227 0
260 230 -228 0
260 -230 228 0
-260 230 228 0
-260 -230 -228 0
-261 256 0
-261 228 0
-261 227 -230 0
-261 -227 230 0
261 -256 227 230 -228 0
261 -256 -227 -230 -228 0
262 259 -225 0
262 -259 225 0
-262 259 225 0
-262 -259 -225 0
263 228 -226 0
263 -228 226 0
-263 228 226 0
-263 -228 -226 0
-264 259 0
-264 226 0
-264 225 -228 0
-264 -225 228 0
264 -259 225 228 -226 0
264 -259 -225 -228 -226 0
265 262 -223 0
265 -262 223 0
-265 262 223 0
-265 -262 -223 0
266 226 -224 0
266 -226 224 0
-266 226 224 0
-266 -226 -224 0
-267 262 0
-267 224 0
-267 223 -226 0
-267 -223 226 0
267 -262 223 226 -224 0
267 -262 -223 -226 -224 0
268 265 -221 0
268 -265 221 0
-268 265 221 0
-268 -265 -221 0
269 224 -222 0
269 -224 222 0
-269 224 222 0
-269 -224 -222 0
-270 265 0
-270 222 0
-270 221 -224 0
-270 -221 224 0
270 -265 221 224 -222 0
270 -265 -221 -224 -222 0
271 268 -219 0
271 -268 219 0
-271 268 219 0
-271 -268 -219 0
272 222 -220 0
272 -222 220 0
-272 222 220 0
-272 -222 -220 0
-273 268 0
-273 220 0
-273 219 -222 0
-273 -219 222 0
273 -268 219 222 -220 0
273 -268 -219 -222 -220 0
274 271 -217 0
274 -271 217 0
-274 271 217 0
-274 -271 -217 0
275 220 -218 0
275 -220 218 0
-275 220 218 0
-275 -220 -218 0
-276 271 0
-276 218 0
-276 217 -220 0
-276 -217 220 0
276 -271 217 220 -218 0
276 -271 -217 -220 -218 0
277 274 -215 0
277 -274 215 0
-277 274 215 0
-277 -274 -215 0
278 218 -216 0
278 -218 216 0
-278 218 216 0
-278 -218 -216 0
-279 274 0
-279 216 0
-279 215 -218 0
-279 -215 218 0
279 -274 215 218 -216 0
279 -274 -215 -218 -216 0
280 277 -213 0
280 -277 213 0
-280 277 213 0
-280 -277 -213 0
281 216 -214 0
281 -216 214 0
-281 216 214 0
-281 -216 -214 0
-282 277 0
-282 214 0
-282 213 -216 0
-282 -213 216 0
282 -277 213 216 -214 0
282 -277 -213 -216 -214 0
283 280 -211 0
283 -280 211 0
-283 280 211 0
-283 -280 -211 0
284 214 -212 0
284 -214 212 0
-284 214 212 0
-284 -214 -212 0
-285 280 0
-285 212 0
-285 211 -214 0
-285 -211 214 0
285 -280 211 214 -212 0
285 -280 -211 -214 -212 0
286 283 -209 0
286 -283 209 0
-286 283 209 0
-286 -283 -209 0
287 212 -210 0
287 -212 210 0
-287 212 210 0
-287 -212 -210 0
-288 283 0
-288 210 0
-288 209 -212 0
-288 -209 212 0
288 -283 209 212 -210 0
288 -283 -209 -212 -210 0
289 286 -207 0
289 -286 207 0
-289 286 207 0
-289 -286 -207 0
290 210 -208 0
290 -210 208 0
-290 210 208 0
-290 -210 -208 0
-291 286 0
-291 208 0
-291 207 -210 0
-291 -207 210 0
291 -286 207 210 -208 0
291 -286 -207 -210 -208 0
292 289 -205 0
292 -289 205 0
-292 289 205 0
-292 -289 -205 0
293 208 -206 0
293 -208 206 0
-293 208 206 0
-293 -208 -206 0
-294 289 0
-294 206 0
-294 205 -208 0
-294 -205 208 0
294 -289 205 208 -206 0
294 -289 -205 -208 -206 0
295 292 -203 0
295 -292 203 0
-295 292 203 0
-295 -292 -203 0
296 206 -204 0
296 -206 204 0
-296 206 204 0
-296 -206 -204 0
-297 292 0
-297 204 0
-297 203 -206 0
-297 -203 206 0
297 -292 203 206 -204 0
297 -292 -203 -206 -204 0
298 295 -201 0
298 -295 201 0
-298 295 201 0
-298 -295 -201 0
299 204 -202 0
299 -204 202 0
-299 204 202 0
-299 -204 -202 0
-300 295 0
-300 202 0
-300 201 -204 0
-300 -201 204 0
300 -295 201 204 -202 0
300 -295 -201 -204 -202 0
301 298 -199 0
301 -298 199 0
-301 298 199 0
-301 -298 -199 0
302 202 -200 0
302 -202 200 0
-302 202 200 0
-302 -202 -200 0
-303 298 0
-303 200 0
-303 199 -202 0
-303 -199 202 0
303 -298 199 202 -200 0
303 -298 -199 -202 -200 0
304 301 -197 0
304 -301 197 0
-304 301 197 0
-304 -301 -197 0
305 200 -198 0
305 -200 198 0
-305 200 198 0
-305 -200 -198 0
-306 301 0
-306 198 0
-306 197 -200 0
-306 -197 200 0
306 -301 197 200 -198 0
306 -301 -197 -200 -198 0
307 304 -195 0
307 -304 195 0
-307 304 195 0
-307 -304 -195 0
308 198 -196 0
308 -198 196 0
-308 198 196 0
-308 -198 -196 0
-309 304 0
-309 196 0
-309 195 -198 0
-309 -195 198 0
309 -304 195 198 -196 0
309 -304 -195 -198 -196 0
310 307 -193 0
310 -307 193 0
-310 307 193 0
-310 -307 -193 0
311 196 -194 0
311 -196 194 0
-311 196 194 0
-311 -196 -194 0
-312 307 0
-312 194 0
-312 193 -196 0
-312 -193 196 0
312 -307 193 196 -194 0
312 -307 -193 -196 -194 0
313 310 -191 0
313 -310 191 0
-313 310 191 0
-313 -310 -191 0
314 194 -192 0
314 -194 192 0
-314 194 192 0
-314 -194 -192 0
-315 310 0
-315 192 0
-315 191 -194 0
-315 -191 194 0
315 -310 191 194 -192 0
315 -310 -191 -194 -192 0
316 313 -189 0
316 -313 189 0
-316 313 189 0
-316 -313 -189 0
317 192 -190 0
317 -192 190 0
-317 192 190 0
-317 -192 -190 0
-318 313 0
-318 190 0
-318 189 -192 0
-318 -189 192 0
318 -313 189 192 -190 0
318 -313 -189 -192 -190 0
319 316 -187 0
319 -316 187 0
-319 316 187 0
-319 -316 -187 0
320 190 -188 0
320 -190 188 0
-320 190 188 0
-320 -190 -188 0
-321 316 0
-321 188 0
-321 187 -190 0
-321 -187 190 0
321 -316 187 190 -188 0
321 -316 -187 -190 -188 0
322 319 -185 0
322 -319 185 0
-322 319 185 0
-322 -319 -185 0
323 188 -186 0
323 -188 186 0
-323 188 186 0
-323 -188 -186 0
-324 319 0
-324 186 0
-324 185 -188 0
-324 -185 188 0
324 -319 185 188 -186 0
324 -319 -185 -188 -186 0
325 322 -183 0
325 -322 183 0
-325 322 183 0
-325 -322 -183 0
326 186 -184 0
326 -186 184 0
-326 186 184 0
-326 -186 -184 0
-327 322 0
-327 184 0
-327 183 -186 0
-327 -183 186 0
327 -322 183 186 -184 0
327 -322 -183 -186 -184 0
328 325 -181 0
328 -325 181 0
-328 325 181 0
-328 -325 -181 0
329 184 -182 0
329 -184 182 0
-329 184 182 0
-329 -184 -182 0
-330 325 0
-330 182 0
-330 181 -184 0
-330 -181 184 0
330 -325 181 184 -182 0
330 -325 -181 -184 -182 0
331 328 -179 0
331 -328 179 0
-331 328 179 0
-331 -328 -179 0
332 182 -180 0
332 -182 180 0
-332 182 180 0
-332 -182 -180 0
-333 328 0
-333 180 0
-333 179 -182 0
-333 -179 182 0
333 -328 179 182 -180 0
333 -328 -179 -182 -180 0
334 331 -177 0
334 -331 177 0
-334 331 177 0
-334 -331 -177 0
335 180 -178 0
335 -180 178 0
-335 180 178 0
-335 -180 -178 0
-336 331 0
-336 178 0
-336 177 -180 0
-336 -177 180 0
336 -331 177 180 -178 0
336 -331 -177 -180 -178 0
337 334 -175 0
337 -334 175 0
-337 334 175 0
-337 -334 -175 0
338 178 -176 0
338 -178 176 0
-338 178 176 0
-338 -178 -176 0
-339 334 0
-339 176 0
-339 175 -178 0
-339 -175 178 0
339 -334 175 178 -176 0
339 -334 -175 -178 -176 0
340 337 -173 0
340 -337 173 0
-340 337 173 0
-340 -337 -173 0
341 176 -174 0
341 -176 174 0
-341 176 174 0
-341 -176 -174 0
-342 337 0
-342 174 0
-342 173 -176 0
-342 -173 176 0
342 -337 173 176 -174 0
342 -337 -173 -176 -174 0
343 340 -171 0
343 -340 171 0
-343 340 171 0
-343 -340 -171 0
344 174 -172 0
344 -174 172 0
-344 174 172 0
-344 -174 -172 0
-345 340 0
-345 172 0
-345 171 -174 0
-345 -171 174 0
345 -340 171 174 -172 0
345 -340 -171 -174 -172 0
346 343 -169 0
346 -343 169 0
-346 343 169 0
-346 -343 -169 0
347 172 -170 0
347 -172 170 0
-347 172 170 0
-347 -172 -170 0
-348 343 0
-348 170 0
-348 169 -172 0
-348 -169 172 0
348 -343 169 172 -170 0
348 -343 -169 -172 -170 0
349 346 -167 0
349 -346 167 0
-349 346 167 0
-349 -346 -167 0
350 170 -168 0
350 -170 168 0
-350 170 168 0
-350 -170 -168 0
-351 346 0
-351 168 0
-351 167 -170 0
-351 -167 170 0
351 -346 167 170 -168 0
351 -346 -167 -170 -168 0
352 349 -165 0
352 -349 165 0
-352 349 165 0
-352 -349 -165 0
353 168 -166 0
353 -168 166 0
-353 168 166 0
-353 -168 -166 0
-354 349 0
-354 166 0
-354 165 -168 0
-354 -165 168 0
354 -349 165 168 -166 0
354 -349 -165 -168 -166 0
355 352 -163 0
355 -352 163 0
-355 352 163 0
-355 -352 -163 0
356 166 -164 0
356 -166 164 0
-356 166 164 0
-356 -166 -164 0
-357 352 0
-357 164 0
-357 163 -166 0
-357 -163 166 0
357 -352 163 166 -164 0
357 -352 -163 -166 -164 0
358 355 -161 0
358 -355 161 0
-358 355 161 0
-358 -355 -161 0
359 164 -162 0
359 -164 162 0
-359 164 162 0
-359 -164 -162 0
-360 355 0
-360 162 0
-360 161 -164 0
-360 -161 164 0
360 -355 161 164 -162 0
360 -355 -161 -164 -162 0
361 358 -159 0
361 -358 159 0
-361 358 159 0
-361 -358 -159 0
362 162 -160 0
362 -162 160 0
-362 162 160 0
-362 -162 -160 0
-363 358 0
-363 160 0
-363 159 -162 0
-363 -159 162 0
363 -358 159 162 -160 0
363 -358 -159 -162 -160 0
364 361 -157 0
364 -361 157 0
-364 361 157 0
-364 -361 -157 0
365 160 -158 0
365 -160 158 0
-365 160 158 0
-365 -160 -158 0
-366 361 0
-366 158 0
-366 157 -160 0
-366 -157 160 0
366 -361 157 160 -158 0
366 -361 -157 -160 -158 0
367 364 -155 0
367 -364 155 0
-367 364 155 0
-367 -364 -155 0
368 158 -156 0
368 -158 156 0
-368 158 156 0
-368 -158 -156 0
-369 364 0
-369 156 0
-369 155 -158 0
-369 -155 158 0
369 -364 155 158 -156 0
369 -364 -155 -158 -156 0
370 367 -153 0
370 -367 153 0
-370 367 153 0
-370 -367 -153 0
371 156 -154 0
371 -156 154 0
-371 156 154 0
-371 -156 -154 0
-372 367 0
-372 154 0
-372 153 -156 0
-372 -153 156 0
372 -367 153 156 -154 0
372 -367 -153 -156 -154 0
373 370 -151 0
373 -370 151 0
-373 370 151 0
-373 -370 -151 0
374 154 -152 0
374 -154 152 0
-374 154 152 0
-374 -154 -152 0
-375 370 0
-375 152 0
-375 151 -154 0
-375 -151 154 0
375 -370 151 154 -152 0
375 -370 -151 -154 -152 0
376 373 -149 0
376 -373 149 0
-376 373 149 0
-376 -373 -149 0
377 152 -150 0
377 -152 150 0
-377 152 150 0
-377 -152 -150 0
-378 373 0
-378 150 0
-378 149 -152 0
-378 -149 152 0
378 -373 149 152 -150 0
378 -373 -149 -152 -150 0
379 376 -147 0
379 -376 147 0
-379 376 147 0
-379 -376 -147 0
380 150 -148 0
380 -150 148 0
-380 150 148 0
-380 -150 -148 0
-381 376 0
-381 148 0
-381 147 -150 0
-381 -147 150 0
381 -376 147 150 -148 0
381 -376 -147 -150 -148 0
382 379 -145 0
382 -379 145 0
-382 379 145 0
-382 -379 -145 0
383 148 -146 0
383 -148 146 0
-383 148 146 0
-383 -148 -146 0
-384 379 0
-384 146 0
-384 145 -148 0
-384 -145 148 0
384 -379 145 148 -146 0
384 -379 -145 -148 -146 0
385 382 -143 0
385 -382 143 0
-385 382 143 0
-385 -382 -143 0
386 146 -144 0
386 -146 144 0
-386 146 144 0
-386 -146 -144 0
-387 382 0
-387 144 0
-387 143 -146 0
-387 -143 146 0
387 -382 143 146 -144 0
387 -382 -143 -146 -144 0
388 385 -141 0
388 -385 141 0
-388 385 141 0
-388 -385 -141 0
389 144 -142 0
389 -144 142 0
-389 144 142 0
-389 -144 -142 0
-390 385 0
-390 142 0
-390 141 -144 0
-390 -141 144 0
390 -385 141 144 -142 0
390 -385 -141 -144 -142 0
391 388 -139 0
391 -388 139 0
-391 388 139 0
-391 -388 -139 0
392 142 -140 0
392 -142 140 0
-392 142 140 0
-392 -142 -140 0
-393 388 0
-393 140 0
-393 139 -142 0
-393 -139 142 0
393 -388 139 142 -140 0
393 -388 -139 -142 -140 0
394 391 -137 0
394 -391 137 0
-394 391 137 0
-394 -391 -137 0
395 140 -138 0
395 -140 138 0
-395 140 138 0
-395 -140 -138 0
-396 391 0
-396 138 0
-396 137 -140 0
-396 -137 140 0
396 -391 137 140 -138 0
396 -391 -137 -140 -138 0
397 394 -135 0
397 -394 135 0
-397 394 135 0
-397 -394 -135 0
398 138 -136 0
398 -138 136 0
-398 138 136 0
-398 -138 -136 0
-399 394 0
-399 136 0
-399 135 -138 0
-399 -135 138 0
399 -394 135 138 -136 0
399 -394 -135 -138 -136 0
400 397 -133 0
400 -397 133 0
-400 397 133 0
-400 -397 -133 0
401 136 -134 0
401 -136 134 0
-401 136 134 0
-401 -136 -134 0
-402 397 0
-402 134 0
-402 133 -136 0
-402 -133 136 0
402 -397 133 136 -134 0
402 -397 -133 -136 -134 0
403 400 -131 0
403 -400 131 0
-403 400 131 0
-403 -400 -131 0
404 134 -132 0
404 -134 132 0
-404 134 132 0
-404 -134 -132 0
-405 400 0
-405 132 0
-405 131 -134 0
-405 -131 134 0
405 -400 131 134 -132 0
405 -400 -131 -134 -132 0
406 403 -129 0
406 -403 129 0
-406 403 129 0
-406 -403 -129 0
407 132 -130 0
407 -132 130 0
-407 132 130 0
-407 -132 -130 0
-408 403 0
-408 130 0
-408 129 -132 0
-408 -129 132 0
408 -403 129 132 -130 0
408 -403 -129 -132 -130 0
409 406 -127 0
409 -406 127 0
-409 406 127 0
-409 -406 -127 0
410 130 -128 0
410 -130 128 0
-410 130 128 0
-410 -130 -128 0
-411 406 0
-411 128 0
-411 127 -130 0
-411 -127 130 0
411 -406 127 130 -128 0
411 -406 -127 -130 -128 0
412 409 -125 0
412 -409 125 0
-412 409 125 0
-412 -409 -125 0
413 128 -126 0
413 -128 126 0
-413 128 126 0
-413 -128 -126 0
-414 409 0
-414 126 0
-414 125 -128 0
-414 -125 128 0
414 -409 125 128 -126 0
414 -409 -125 -128 -126 0
415 412 -123 0
415 -412 123 0
-415 412 123 0
-415 -412 -123 0
416 126 -124 0
416 -126 124 0
-416 126 124 0
-416 -126 -124 0
-417 412 0
-417 124 0
-417 123 -126 0
-417 -123 126 0
417 -412 123 126 -124 0
417 -412 -123 -126 -124 0
418 415 -121 0
418 -415 121 0
-418 415 121 0
-418 -415 -121 0
419 124 -122 0
419 -124 122 0
-419 124 122 0
-419 -124 -122 0
-420 415 0
-420 122 0
-420 121 -124 0
-420 -121 124 0
420 -415 121 124 -122 0
420 -415 -121 -124 -122 0
421 418 -119 0
421 -418 119 0
-421 418 119 0
-421 -418 -119 0
422 122 -120 0
422 -122 120 0
-422 122 120 0
-422 -122 -120 0
-423 418 0
-423 120 0
-423 119 -122 0
-423 -119 122 0
423 -418 119 122 -120 0
423 -418 -119 -122 -120 0
424 421 -117 0
424 -421 117 0
-424 421 117 0
-424 -421 -117 0
425 120 -118 0
425 -120 118 0
-425 120 118 0
-425 -120 -118 0
-426 421 0
-426 118 0
-426 117 -120 0
-426 -117 120 0
426 -421 117 120 -118 0
426 -421 -117 -120 -118 0
427 424 -115 0
427 -424 115 0
-427 424 115 0
-427 -424 -115 0
428 118 -116 0
428 -118 116 0
-428 118 116 0
-428 -118 -116 0
-429 424 0
-429 116 0
-429 115 -118 0
-429 -115 118 0
429 -424 115 118 -116 0
429 -424 -115 -118 -116 0
430 427 -113 0
430 -427 113 0
-430 427 113 0
-430 -427 -113 0
431 116 -114 0
431 -116 114 0
-431 116 114 0
-431 -116 -114 0
-432 427 0
-432 114 0
-432 113 -116 0
-432 -113 116 0
432 -427 113 116 -114 0
432 -427 -113 -116 -114 0
433 430 -111 0
433 -430 111 0
-433 430 111 0
-433 -430 -111 0
434 114 -112 0
434 -114 112 0
-434 114 112 0
-434 -114 -112 0
-435 430 0
-435 112 0
-435 111 -114 0
-435 -111 114 0
435 -430 111 114 -112 0
435 -430 -111 -114 -112 0
436 433 -109 0
436 -433 109 0
-436 433 109 0
-436 -433 -109 0
437 112 -110 0
437 -112 110 0
-437 112 110 0
-437 -112 -110 0
-438 433 0
-438 110 0
-438 109 -112 0
-438 -109 112 0
438 -433 109 112 -110 0
438 -433 -109 -112 -110 0
439 436 -107 0
439 -436 107 0
-439 436 107 0
-439 -436 -107 0
440 110 -108 0
440 -110 108 0
-440 110 108 0
-440 -110 -108 0
-441 436 0
-441 108 0
-441 107 -110 0
-441 -107 110 0
441 -436 107 110 -108 0
441 -436 -107 -110 -108 0
442 439 -105 0
442 -439 105 0
-442 439 105 0
-442 -439 -105 0
443 108 -106 0
443 -108 106 0
-443 108 106 0
-443 -108 -106 0
-444 439 0
-444 106 0
-444 105 -108 0
-444 -105 108 0
444 -439 105 108 -106 0
444 -439 -105 -108 -106 0
445 442 -103 0
445 -442 103 0
-445 442 103 0
-445 -442 -103 0
446 106 -104 0
446 -106 104 0
-446 106 104 0
-446 -106 -104 0
-447 442 0
-447 104 0
-447 103 -106 0
-447 -103 106 0
447 -442 103 106 -104 0
447 -442 -103 -106 -104 0
448 445 -101 0
448 -445 101 0
-448 445 101 0
-448 -445 -101 0
449 104 -102 0
449 -104 102 0
-449 104 102 0
-449 -104 -102 0
-450 445 0
-450 102 0
-450 101 -104 0
-450 -101 104 0
450 -445 101 104 -102 0
450 -445 -101 -104 -102 0
451 448 -99 0
451 -448 99 0
-451 448 99 0
-451 -448 -99 0
452 102 -100 0
452 -102 100 0
-452 102 100 0
-452 -102 -100 0
-453 448 0
-453 100 0
-453 99 -102 0
-453 -99 102 0
453 -448 99 102 -100 0
453 -448 -99 -102 -100 0
454 451 -97 0
454 -451 97 0
-454 451 97 0
-454 -451 -97 0
455 100 -98 0
455 -100 98 0
-455 100 98 0
-455 -100 -98 0
-456 451 0
-456 98 0
-456 97 -100 0
-456 -97 100 0
456 -451 97 100 -98 0
456 -451 -97 -100 -98 0
457 454 -95 0
457 -454 95 0
-457 454 95 0
-457 -454 -95 0
458 98 -96 0
458 -98 96 0
-458 98 96 0
-458 -98 -96 0
-459 454 0
-459 96 0
-459 95 -98 0
-459 -95 98 0
459 -454 95 98 -96 0
459 -454 -95 -98 -96 0
460 457 -93 0
460 -457 93 0
-460 457 93 0
-460 -457 -93 0
461 96 -94 0
461 -96 94 0
-461 96 94 0
-461 -96 -94 0
-462 457 0
-462 94 0
-462 93 -96 0
-462 -93 96 0
462 -457 93 96 -94 0
462 -457 -93 -96 -94 0
463 460 -91 0
463 -460 91 0
-463 460 91 0
-463 -460 -91 0
464 94 -92 0
464 -94 92 0
-464 94 92 0
-464 -94 -92 0
-465 460 0
-465 92 0
-465 91 -94 0
-465 -91 94 0
465 -460 91 94 -92 0
465 -460 -91 -94 -92 0
466 463 -89 0
466 -463 89 0
-466 463 89 0
-466 -463 -89 0
467 92 -90 0
467 -92 90 0
-467 92 90 0
-467 -92 -90 0
-468 463 0
-468 90 0
-468 89 -92 0
-468 -89 92 0
468 -463 89 92 -90 0
468 -463 -89 -92 -90 0
469 466 -87 0
469 -466 87 0
-469 466 87 0
-469 -466 -87 0
470 90 -88 0
470 -90 88 0
-470 90 88 0
-470 -90 -88 0
-471 466 0
-471 88 0
-471 87 -90 0
-471 -87 90 0
471 -466 87 90 -88 0
471 -466 -87 -90 -88 0
472 469 -85 0
472 -469 85 0
-472 469 85 0
-472 -469 -85 0
473 88 -86 0
473 -88 86 0
-473 88 86 0
-473 -88 -86 0
-474 469 0
-474 86 0
-474 85 -88 0
-474 -85 88 0
474 -469 85 88 -86 0
474 -469 -85 -88 -86 0
475 472 -83 0
475 -472 83 0
-475 472 83 0
-475 -472 -83 0
476 86 -84 0
476 -86 84 0
-476 86 84 0
-476 -86 -84 0
-477 472 0
-477 84 0
-477 83 -86 0
-477 -83 86 0
477 -472 83 86 -84 0
477 -472 -83 -86 -84 0
478 475 -81 0
478 -475 81 0
-478 475 81 0
-478 -475 -81 0
479 84 -82 0
479 -84 82 0
-479 84 82 0
-479 -84 -82 0
-480 475 0
-480 82 0
-480 81 -84 0
-480 -81 84 0
480 -475 81 84 -82 0
480 -475 -81 -84 -82 0
481 478 -79 0
481 -478 79 0
-481 478 79 0
-481 -478 -79 0
482 82 -80 0
482 -82 80 0
-482 82 80 0
-482 -82 -80 0
-483 478 0
-483 80 0
-483 79 -82 0
-483 -79 82 0
483 -478 79 82 -80 0
483 -478 -79 -82 -80 0
484 481 -77 0
484 -481 77 0
-484 481 77 0
-484 -481 -77 0
485 80 -78 0
485 -80 78 0
-485 80 78 0
-485 -80 -78 0
-486 481 0
-486 78 0
-486 77 -80 0
-486 -77 80 0
486 -481 77 80 -78 0
486 -481 -77 -80 -78 0
487 484 -75 0
487 -484 75 0
-487 484 75 0
-487 -484 -75 0
488 78 -76 0
488 -78 76 0
-488 78 76 0
-488 -78 -76 0
-489 484 0
-489 76 0
-489 75 -78 0
-489 -75 78 0
489 -484 75 78 -76 0
489 -484 -75 -78 -76 0
490 487 -73 0
490 -487 73 0
-490 487 73 0
-490 -487 -73 0
491 76 -74 0
491 -76 74 0
-491 76 74 0
-491 -76 -74 0
-492 487 0
-492 74 0
-492 73 -76 0
-492 -73 76 0
492 -487 73 76 -74 0
492 -487 -73 -76 -74 0
493 490 -71 0
493 -490 71 0
-493 490 71 0
-493 -490 -71 0
494 74 -72 0
494 -74 72 0
-494 74 72 0
-494 -74 -72 0
-495 490 0
-495 72 0
-495 71 -74 0
-495 -71 74 0
495 -490 71 74 -72 0
495 -490 -71 -74 -72 0
496 493 -69 0
496 -493 69 0
-496 493 69 0
-496 -493 -69 0
497 72 -70 0
497 -72 70 0
-497 72 70 0
-497 -72 -70 0
-498 493 0
-498 70 0
-498 69 -72 0
-498 -69 72 0
498 -493 69 72 -70 0
498 -493 -69 -72 -70 0
499 496 -67 0
499 -496 67 0
-499 496 67 0
-499 -496 -67 0
500 70 -68 0
500 -70 68 0
-500 70 68 0
-500 -70 -68 0
-501 496 0
-501 68 0
-501 67 -70 0
-501 -67 70 0
501 -496 67 70 -68 0
501 -496 -67 -70 -68 0
502 499 -65 0
502 -499 65 0
-502 499 65 0
-502 -499 -65 0
503 68 -66 0
503 -68 66 0
-503 68 66 0
-503 -68 -66 0
-504 499 0
-504 66 0
-504 65 -68 0
-504 -65 68 0
504 -499 65 68 -66 0
504 -499 -65 -68 -66 0
505 502 -63 0
505 -502 63 0
-505 502 63 0
-505 -502 -63 0
506 66 -64 0
506 -66 64 0
-506 66 64 0
-506 -66 -64 0
-507 502 0
-507 64 0
-507 63 -66 0
-507 -63 66 0
507 -502 63 66 -64 0
507 -502 -63 -66 -64 0
508 505 -61 0
508 -505 61 0
-508 505 61 0
-508 -505 -61 0
509 64 -62 0
509 -64 62 0
-509 64 62 0
-509 -64 -62 0
-510 505 0
-510 62 0
-510 61 -64 0
-510 -61 64 0
510 -505 61 64 -62 0
510 -505 -61 -64 -62 0
511 508 -59 0
511 -508 59 0
-511 508 59 0
-511 -508 -59 0
512 62 -60 0
512 -62 60 0
-512 62 60 0
-512 -62 -60 0
-513 508 0
-513 60 0
-513 59 -62 0
-513 -59 62 0
513 -508 59 62 -60 0
513 -508 -59 -62 -60 0
514 511 -57 0
514 -511 57 0
-514 511 57 0
-514 -511 -57 0
515 60 -58 0
515 -60 58 0
-515 60 58 0
-515 -60 -58 0
-516 511 0
-516 58 0
-516 57 -60 0
-516 -57 60 0
516 -511 57 60 -58 0
516 -511 -57 -60 -58 0
517 514 -55 0
517 -514 55 0
-517 514 55 0
-517 -514 -55 0
518 58 -56 0
518 -58 56 0
-518 58 56 0
-518 -58 -56 0
-519 514 0
-519 56 0
-519 55 -58 0
-519 -55 58 0
519 -514 55 58 -56 0
519 -514 -55 -58 -56 0
520 517 -53 0
520 -517 53 0
-520 517 53 0
-520 -517 -53 0
521 56 -54 0
521 -56 54 0
-521 56 54 0
-521 -56 -54 0
-522 517 0
-522 54 0
-522 53 -56 0
-522 -53 56 0
522 -517 53 56 -54 0
522 -517 -53 -56 -54 0
523 520 -51 0
523 -520 51 0
-523 520 51 0
-523 -520 -51 0
524 54 -52 0
524 -54 52 0
-524 54 52 0
-524 -54 -52 0
-525 520 0
-525 52 0
-525 51 -54 0
-525 -51 54 0
525 -520 51 54 -52 0
525 -520 -51 -54 -52 0
526 523 -49 0
526 -523 49 0
-526 523 49 0
-526 -523 -49 0
527 52 -50 0
527 -52 50 0
-527 52 50 0
-527 -52 -50 0
-528 523 0
-528 50 0
-528 49 -52 0
-528 -49 52 0
528 -523 49 52 -50 0
528 -523 -49 -52 -50 0
529 526 -47 0
529 -526 47 0
-529 526 47 0
-529 -526 -47 0
530 50 -48 0
530 -50 48 0
-530 50 48 0
-530 -50 -48 0
-531 526 0
-531 48 0
-531 47 -50 0
-531 -47 50 0
531 -526 47 50 -48 0
531 -526 -47 -50 -48 0
532 529 -45 0
532 -529 45 0
-532 529 45 0
-532 -529 -45 0
533 48 -46 0
533 -48 46 0
-533 48 46 0
-533 -48 -46 0
-534 529 0
-534 46 0
-534 45 -48 0
-534 -45 48 0
534 -529 45 48 -46 0
534 -529 -45 -48 -46 0
535 532 -43 0
535 -532 43 0
-535 532 43 0
-535 -532 -43 0
536 46 -44 0
536 -46 44 0
-536 46 44 0
-536 -46 -44 0
-537 532 0
-537 44 0
-537 43 -46 0
-537 -43 46 0
537 -532 43 46 -44 0
537 -532 -43 -46 -44 0
538 535 -41 0
538 -535 41 0
-538 535 41 0
-538 -535 -41 0
539 44 -42 0
539 -44 42 0
-539 44 42 0
-539 -44 -42 0
-540 535 0
-540 42 0
-540 41 -44 0
-540 -41 44 0
540 -535 41 44 -42 0
540 -535 -41 -44 -42 0
541 538 -39 0
541 -538 39 0
-541 538 39 0
-541 -538 -39 0
542 42 -40 0
542 -42 40 0
-542 42 40 0
-542 -42 -40 0
-543 538 0
-543 40 0
-543 39 -42 0
-543 -39 42 0
543 -538 39 42 -40 0
543 -538 -39 -42 -40 0
544 541 -37 0
544 -541 37 0
-544 541 37 0
-544 -541 -37 0
545 40 -38 0
545 -40 38 0
-545 40 38 0
-545 -40 -38 0
-546 541 0
-546 38 0
-546 37 -40 0
-546 -37 40 0
546 -541 37 40 -38 0
546 -541 -37 -40 -38 0
547 544 -35 0
547 -544 35 0
-547 544 35 0
-547 -544 -35 0
548 38 -36 0
548 -38 36 0
-548 38 36 0
-548 -38 -36 0
-549 544 0
-549 36 0
-549 35 -38 0
-549 -35 38 0
549 -544 35 38 -36 0
549 -544 -35 -38 -36 0
550 547 -33 0
550 -547 33 0
-550 547 33 0
-550 -547 -33 0
551 36 -34 0
551 -36 34 0
-551 36 34 0
-551 -36 -34 0
-552 547 0
-552 34 0
-552 33 -36 0
-552 -33 36 0
552 -547 33 36 -34 0
552 -547 -33 -36 -34 0
553 550 -31 0
553 -550 31 0
-553 550 31 0
-553 -550 -31 0
554 34 -32 0
554 -34 32 0
-554 34 32 0
-554 -34 -32 0
-555 550 0
-555 32 0
-555 31 -34 0
-555 -31 34 0
555 -550 31 34 -32 0
555 -550 -31 -34 -32 0
556 553 -29 0
556 -553 29 0
-556 553 29 0
-556 -553 -29 0
557 32 -30 0
557 -32 30 0
-557 32 30 0
-557 -32 -30 0
-558 553 0
-558 30 0
-558 29 -32 0
-558 -29 32 0
558 -553 29 32 -30 0
558 -553 -29 -32 -30 0
559 556 -27 0
559 -556 27 0
-559 556 27 0
-559 -556 -27 0
560 30 -28 0
560 -30 28 0
-560 30 28 0
-560 -30 -28 0
-561 556 0
-561 28 0
-561 27 -30 0
-561 -27 30 0
561 -556 27 30 -28 0
561 -556 -27 -30 -28 0
562 559 -25 0
562 -559 25 0
-562 559 25 0
-562 -559 -25 0
563 28 -26 0
563 -28 26 0
-563 28 26 0
-563 -28 -26 0
-564 559 0
-564 26 0
-564 25 -28 0
-564 -25 28 0
564 -559 25 28 -26 0
564 -559 -25 -28 -26 0
565 562 -23 0
565 -562 23 0
-565 562 23 0
-565 -562 -23 0
566 26 -24 0
566 -26 24 0
-566 26 24 0
-566 -26 -24 0
-567 562 0
-567 24 0
-567 23 -26 0
-567 -23 26 0
567 -562 23 26 -24 0
567 -562 -23 -26 -24 0
568 565 -21 0
568 -565 21 0
-568 565 21 0
-568 -565 -21 0
569 24 -22 0
569 -24 22 0
-569 24 22 0
-569 -24 -22 0
-570 565 0
-570 22 0
-570 21 -24 0
-570 -21 24 0
570 -565 21 24 -22 0
570 -565 -21 -24 -22 0
571 568 -19 0
571 -568 19 0
-571 568 19 0
-571 -568 -19 0
572 22 -20 0
572 -22 20 0
-572 22 20 0
-572 -22 -20 0
-573 568 0
-573 20 0
-573 19 -22 0
-573 -19 22 0
573 -568 19 22 -20 0
573 -568 -19 -22 -20 0
574 571 -17 0
574 -571 17 0
-574 571 17 0
-574 -571 -17 0
575 20 -18 0
575 -20 18 0
-575 20 18 0
-575 -20 -18 0
-576 571 0
-576 18 0
-576 17 -20 0
-576 -17 20 0
576 -571 17 20 -18 0
576 -571 -17 -20 -18 0
577 574 -15 0
577 -574 15 0
-577 574 15 0
-577 -574 -15 0
578 18 -16 0
578 -18 16 0
-578 18 16 0
-578 -18 -16 0
-579 574 0
-579 16 0
-579 15 -18 0
-579 -15 18 0
579 -574 15 18 -16 0
579 -574 -15 -18 -16 0
580 577 -13 0
580 -577 13 0
-580 577 13 0
-580 -577 -13 0
581 16 -14 0
581 -16 14 0
-581 16 14 0
-581 -16 -14 0
-582 577 0
-582 14 0
-582 13 -16 0
-582 -13 16 0
582 -577 13 16 -14 0
582 -577 -13 -16 -14 0
583 580 -11 0
583 -580 11 0
-583 580 11 0
-583 -580 -11 0
584 14 -12 0
584 -14 12 0
-584 14 12 0
-584 -14 -12 0
-585 580 0
-585 12 0
-585 11 -14 0
-585 -11 14 0
585 -580 11 14 -12 0
585 -580 -11 -14 -12 0
586 583 -9 0
586 -583 9 0
-586 583 9 0
-586 -583 -9 0
587 12 -10 0
587 -12 10 0
-587 12 10 0
-587 -12 -10 0
-588 583 0
-588 10 0
-588 9 -12 0
-588 -9 12 0
588 -583 9 12 -10 0
588 -583 -9 -12 -10 0
589 586 -7 0
589 -586 7 0
-589 586 7 0
-589 -586 -7 0
590 10 -8 0
590 -10 8 0
-590 10 8 0
-590 -10 -8 0
-591 586 0
-591 8 0
-591 7 -10 0
-591 -7 10 0
591 -586 7 10 -8 0
591 -586 -7 -10 -8 0
592 589 -5 0
592 -589 5 0
-592 589 5 0
-592 -589 -5 0
593 8 -6 0
593 -8 6 0
-593 8 6 0
-593 -8 -6 0
-594 589 0
-594 6 0
-594 5 -8 0
-594 -5 8 0
594 -589 5 8 -6 0
594 -589 -5 -8 -6 0
595 592 -3 0
595 -592 3 0
-595 592 3 0
-595 -592 -3 0
596 6 -4 0
596 -6 4 0
-596 6 4 0
-596 -6 -4 0
-597 592 0
-597 4 0
-597 3 -6 0
-597 -3 6 0
597 -592 3 6 -4 0
597 -592 -3 -6 -4 0
598 595 -1 0
598 -595 1 0
-598 595 1 0
-598 -595 -1 0
599 4 -2 0
599 -4 2 0
-599 4 2 0
-599 -4 -2 0
-600 595 0
-600 2 0
-600 1 -4 0
-600 -1 4 0
600 -595 1 4 -2 0
600 -595 -1 -4 -2 0
-598 0
-595 0
-599 0
-592 0
-596 0
-589 0
-593 0
-586 0
-590 0
-583 0
-587 0
-580 0
-584 0
-577 0
-581 0
-574 0
-578 0
-571 0
-575 0
-568 0
-572 0
-565 0
-569 0
-562 0
-566 0
-559 0
-563 0
-556 0
-560 0
-553 0
-557 0
-550 0
-554 0
-547 0
-551 0
-544 0
-548 0
-541 0
-545 0
-538 0
-542 0
-535 0
-539 0
-532 0
-536 0
-529 0
-533 0
-526 0
-530 0
-523 0
-527 0
-520 0
-524 0
-517 0
-521 0
-514 0
-518 0
-511 0
-515 0
-508 0
-512 0
-505 0
-509 0
-502 0
-506 0
-499 0
-503 0
-496 0
-500 0
-493 0
-497 0
-490 0
-494 0
-487 0
-491 0
-484 0
-488 0
-481 0
-485 0
-478 0
-482 0
-475 0
-479 0
-472 0
-476 0
-469 0
-473 0
-466 0
-470 0
-463 0
-467 0
-460 0
-464 0
-457 0
-461 0
-454 0
-458 0
-451 0
-455 0
-448 0
-452 0
-445 0
-449 0
-442 0
-446 0
-439 0
-443 0
-436 0
-440 0
-433 0
-437 0
-430 0
-434 0
-427 0
-431 0
-424 0
-428 0
-421 0
-425 0
-418 0
-422 0
-415 0
-419 0
-412 0
-416 0
-409 0
-413 0
-406 0
-410 0
-403 0
-407 0
-400 0
-404 0
-397 0
-401 0
-394 0
-398 0
-391 0
-395 0
-388 0
-392 0
-385 0
-389 0
-382 0
-386 0
-379 0
-383 0
-376 0
-380 0
-373 0
-377 0
-370 0
-374 0
-367 0
-371 0
-364 0
-368 0
-361 0
-365 0
-358 0
-362 0
-355 0
-359 0
-352 0
-356 0
-349 0
-353 0
-346 0
-350 0
-343 0
-347 0
-340 0
-344 0
-337 0
-341 0
-334 0
-338 0
-331 0
-335 0
-328 0
-332 0
-325 0
-329 0
-322 0
-326 0
-319 0
-323 0
-316 0
-320 0
-313 0
-317 0
-310 0
-314 0
-307 0
-311 0
-304 0
-308 0
-301 0
-305 0
-298 0
-302 0
-295 0
-299 0
-292 0
-296 0
-289 0
-293 0
-286 0
-290 0
-283 0
-287 0
-280 0
-284 0
-277 0
-281 0
-274 0
-278 0
-271 0
-275 0
-268 0
-272 0
-265 0
-269 0
-262 0
-266 0
-259 0
-263 0
-256 0
-260 0
-253 0
-257 0
-250 0
-254 0
-247 0
-251 0
-241 0
-248 0
